p tw 1069 1785
1 202
1 587
1 588
1 712
1 774
1 775
2 791
2 792
3 886
3 887
4 1004
4 1005
5 849
5 850
6 815
6 816
7 500
7 501
7 805
7 806
8 897
8 898
9 535
9 536
10 803
10 804
11 917
11 918
12 951
12 952
13 953
13 954
14 1054
14 1055
15 855
15 856
16 1027
16 1028
17 482
17 483
18 1031
18 1032
19 935
19 936
20 616
20 617
21 828
21 829
22 510
22 511
22 727
22 728
23 846
23 847
24 602
24 603
24 728
24 729
25 1002
25 1003
26 1025
26 1026
27 902
27 903
28 626
28 627
29 511
29 512
29 729
29 730
30 983
30 984
31 512
31 513
32 652
32 653
33 982
33 983
34 817
34 818
35 565
35 566
35 740
35 741
36 527
36 528
37 795
37 796
38 813
38 814
39 1066
39 1067
40 1019
40 1020
41 989
41 990
42 912
42 913
43 812
43 813
44 609
44 610
45 922
45 923
46 1015
46 1016
47 618
47 619
48 1026
48 1027
49 534
49 535
49 844
49 845
50 906
50 907
51 948
51 949
52 508
52 509
53 924
53 925
54 1063
54 1064
55 670
55 671
56 532
56 533
56 840
56 841
57 703
57 704
57 885
57 886
58 909
58 910
59 577
59 578
59 761
59 762
60 1024
60 1025
61 808
61 809
62 975
62 976
63 895
63 896
64 533
64 534
65 784
65 785
66 932
66 933
67 934
67 935
68 559
68 560
69 845
69 846
70 970
70 971
71 947
71 948
72 478
72 479
72 544
72 545
72 716
72 717
73 965
73 966
74 673
74 674
75 871
75 872
76 981
76 982
77 864
77 865
78 1037
78 1038
79 1007
79 1008
80 1048
80 1049
81 583
81 584
81 706
81 707
82 645
82 646
83 958
83 959
84 913
84 914
85 879
85 880
86 789
86 790
87 681
87 682
87 1060
87 1061
88 910
88 911
89 700
89 701
90 514
90 515
91 834
91 835
92 799
92 800
93 868
93 869
94 489
94 490
94 788
94 789
95 961
95 962
96 1009
96 1010
97 580
97 581
97 765
97 766
98 780
98 781
99 680
99 681
100 496
100 497
100 636
100 637
101 515
101 516
102 1067
102 1068
103 966
103 967
104 509
104 510
104 726
104 727
105 991
105 992
106 863
106 864
107 516
107 517
108 1045
108 1046
109 653
109 654
110 588
110 589
111 1061
111 1062
112 475
112 476
112 614
112 615
112 971
112 972
113 929
113 930
114 599
114 600
115 617
115 618
116 986
116 987
117 505
117 506
117 778
117 779
118 867
118 868
119 623
119 624
119 747
119 748
120 819
120 820
121 624
121 625
122 486
122 487
123 584
123 585
124 919
124 920
125 1006
125 1007
126 960
126 961
127 839
127 840
128 281
128 503
129 1050
129 1051
130 600
130 601
131 804
131 805
132 1011
132 1012
133 685
133 686
133 1065
133 1066
134 564
134 565
134 892
134 893
135 612
135 613
136 481
136 482
137 837
137 838
138 644
138 645
139 858
139 859
140 1014
140 1015
141 976
141 977
142 490
142 491
142 628
142 629
142 752
142 753
143 933
143 934
144 639
144 640
145 797
145 798
146 956
146 957
147 972
147 973
148 903
148 904
149 861
149 862
150 479
150 480
151 661
151 662
151 1040
151 1041
152 548
152 549
153 872
153 873
154 631
154 632
154 758
154 759
155 1053
155 1054
156 630
156 631
156 990
156 991
157 926
157 927
158 1020
158 1021
159 1051
159 1052
160 501
160 502
160 517
160 518
160 806
160 807
161 487
161 488
161 824
161 825
162 838
162 839
163 918
163 919
164 640
164 641
165 1052
165 1053
166 495
166 496
166 835
166 836
167 603
167 604
168 921
168 922
169 654
169 655
169 725
169 726
170 684
170 685
171 928
171 929
172 611
172 612
172 741
172 742
173 860
173 861
174 816
174 817
175 678
175 679
176 572
176 573
176 751
176 752
177 627
177 628
177 753
177 754
178 930
178 931
179 833
179 834
180 876
180 877
181 869
181 870
182 940
182 941
183 915
183 916
184 945
184 946
185 862
185 863
186 658
186 659
187 887
187 888
188 608
188 609
189 870
189 871
190 556
190 557
190 732
190 733
191 829
191 830
192 656
192 657
193 941
193 942
194 498
194 499
194 531
194 532
194 767
194 768
195 1010
195 1011
196 594
196 595
197 985
197 986
198 988
198 989
199 651
199 652
199 688
199 689
200 648
200 649
200 708
200 709
201 694
201 695
202 242
202 589
202 590
202 712
202 776
203 642
203 643
203 704
203 705
204 848
204 849
205 637
205 638
205 768
205 769
206 827
206 828
207 781
207 782
208 973
208 974
209 674
209 675
210 853
210 854
211 841
211 842
212 699
212 700
212 916
212 917
213 657
213 658
213 1029
213 1030
214 878
214 879
215 707
215 708
216 542
216 543
216 854
216 855
217 682
217 683
217 769
217 770
218 596
218 597
218 718
218 719
219 520
219 521
219 737
219 738
219 811
219 812
220 563
220 564
221 822
221 823
222 1057
222 1058
223 1008
223 1009
224 1064
224 1065
225 607
225 608
226 483
226 484
226 597
226 598
226 720
226 721
227 1022
227 1023
228 905
228 906
229 831
229 832
230 969
230 970
231 671
231 672
232 476
232 477
233 936
233 937
234 1017
234 1018
235 880
235 881
236 1036
236 1037
237 569
237 570
238 801
238 802
239 779
239 780
240 549
240 550
241 901
241 902
242 591
242 592
242 776
243 1047
243 1048
244 558
244 559
244 883
244 884
245 1028
245 1029
246 539
246 540
247 590
247 591
248 672
248 673
249 634
249 635
249 760
249 761
250 900
250 901
251 998
251 999
252 950
252 951
253 625
253 626
254 856
254 857
255 1030
255 1031
256 1018
256 1019
257 882
257 883
258 502
258 503
259 963
259 964
260 809
260 810
261 1041
261 1042
262 518
262 519
262 734
262 735
263 613
263 614
264 687
264 688
265 650
265 651
266 551
266 552
267 664
267 665
267 735
267 736
268 521
268 522
268 820
268 821
269 552
269 553
269 723
269 724
270 504
270 505
270 713
270 714
271 842
271 843
272 675
272 676
273 633
273 634
274 555
274 556
274 877
274 878
275 695
275 696
276 571
276 572
276 749
276 750
277 538
277 539
277 772
277 773
278 792
278 793
279 499
279 500
279 959
279 960
280 550
280 551
280 722
280 723
281 503
282 492
282 493
282 1021
282 1022
283 852
283 853
284 896
284 897
285 1012
285 1013
286 790
286 791
287 629
287 630
287 755
287 756
288 705
288 706
289 497
289 498
290 574
290 575
291 691
291 692
292 598
292 599
293 1033
293 1034
294 507
294 508
294 717
294 718
295 782
295 783
296 943
296 944
297 601
297 602
298 522
298 523
298 745
298 746
299 954
299 955
300 802
300 803
301 693
301 694
302 1055
302 1056
303 798
303 799
304 978
304 979
305 573
305 574
305 750
305 751
306 560
306 561
307 523
307 524
307 746
307 747
308 925
308 926
309 506
309 507
309 715
309 716
310 794
310 795
311 526
311 527
311 748
311 749
312 967
312 968
313 964
313 965
314 847
314 848
315 586
315 587
315 773
315 774
316 676
316 677
316 698
316 699
317 553
317 554
318 955
318 956
319 701
319 702
319 875
319 876
320 592
320 593
321 1016
321 1017
322 832
322 833
323 582
323 583
323 770
323 771
323 927
323 928
324 619
324 620
325 786
325 787
326 494
326 495
327 615
327 616
327 743
327 744
328 528
328 529
328 756
328 757
329 530
329 531
329 762
329 763
330 1062
330 1063
331 480
331 481
332 914
332 915
333 1001
333 1002
334 942
334 943
335 665
335 666
335 738
335 739
336 610
336 611
337 1059
337 1060
338 646
338 647
339 562
339 563
340 787
340 788
341 546
341 547
342 477
342 478
342 974
342 975
343 995
343 996
344 493
344 494
344 554
344 555
344 874
344 875
345 866
345 867
346 865
346 866
347 567
347 568
348 826
348 827
349 643
349 644
349 771
349 772
350 570
350 571
351 362
351 375
351 380
351 686
351 1068
351 1069
352 709
352 710
353 669
353 670
354 604
354 605
354 730
354 731
355 1035
355 1036
356 1042
356 1043
357 937
357 938
358 536
358 537
359 873
359 874
360 543
360 544
360 857
360 858
361 931
361 932
362 686
362 775
362 776
363 513
363 514
363 731
363 732
364 830
364 831
365 898
365 899
366 884
366 885
367 579
367 580
368 807
368 808
369 836
369 837
370 1013
370 1014
371 593
371 594
371 714
371 715
372 923
372 924
373 850
373 851
374 638
374 639
374 766
374 767
375 620
375 621
375 690
375 691
375 1069
376 889
376 890
377 524
377 525
378 984
378 985
379 606
379 607
380 1068
381 800
381 801
382 904
382 905
383 696
383 697
384 1043
384 1044
385 994
385 995
386 557
386 558
386 881
386 882
387 920
387 921
388 1032
388 1033
389 485
389 486
390 907
390 908
391 999
391 1000
392 621
392 622
393 666
393 667
393 739
393 740
394 541
394 542
395 484
395 485
395 980
395 981
396 659
396 660
396 733
396 734
397 649
397 650
398 697
398 698
399 1023
399 1024
400 851
400 852
401 952
401 953
402 540
402 541
403 977
403 978
404 711
404 712
405 668
405 669
405 744
405 745
406 979
406 980
407 987
407 988
408 957
408 958
409 655
409 656
409 724
409 725
410 576
410 577
410 759
410 760
411 1058
411 1059
412 662
412 663
413 568
413 569
413 899
413 900
414 545
414 546
414 719
414 720
415 911
415 912
416 647
416 648
417 683
417 684
418 992
418 993
419 793
419 794
420 566
420 567
420 893
420 894
421 702
421 703
422 939
422 940
423 660
423 661
423 1034
423 1035
424 632
424 633
424 993
424 994
425 529
425 530
426 605
426 606
427 663
427 664
427 736
427 737
428 667
428 668
428 742
428 743
429 891
429 892
430 581
430 582
431 818
431 819
432 908
432 909
433 635
433 636
433 763
433 764
434 585
434 586
434 938
434 939
435 997
435 998
436 595
436 596
436 946
436 947
437 823
437 824
438 1044
438 1045
439 962
439 963
440 814
440 815
441 996
441 997
442 677
442 678
442 757
442 758
443 1039
443 1040
444 785
444 786
445 777
445 778
446 622
446 623
447 968
447 969
448 491
448 492
448 575
448 576
448 754
448 755
449 578
449 579
450 810
450 811
451 821
451 822
452 1049
452 1050
453 1046
453 1047
454 1056
454 1057
455 783
455 784
456 689
456 690
457 890
457 891
458 949
458 950
459 561
459 562
459 888
459 889
460 488
460 489
460 547
460 548
460 721
460 722
461 525
461 526
461 692
461 693
461 825
461 826
462 641
462 642
463 1038
463 1039
464 859
464 860
465 1005
465 1006
466 843
466 844
467 796
467 797
468 519
468 520
469 894
469 895
470 1000
470 1001
471 679
471 680
471 764
471 765
472 1003
472 1004
473 537
473 538
473 710
473 711
474 944
474 945
475 476
476 477
477 478
478 479
479 480
480 481
481 482
482 483
483 484
484 485
485 486
486 487
487 488
488 489
489 490
490 491
491 492
492 493
493 494
494 495
495 496
496 497
497 498
498 499
499 500
500 501
501 502
502 503
504 505
505 506
506 507
507 508
508 509
509 510
510 511
511 512
512 513
513 514
514 515
515 516
516 517
517 518
518 519
519 520
520 521
521 522
522 523
523 524
524 525
525 526
526 527
527 528
528 529
529 530
530 531
531 532
532 533
533 534
534 535
535 536
536 537
537 538
538 539
539 540
540 541
541 542
542 543
543 544
544 545
545 546
546 547
547 548
548 549
549 550
550 551
551 552
552 553
553 554
554 555
555 556
556 557
557 558
558 559
559 560
560 561
561 562
562 563
563 564
564 565
565 566
566 567
567 568
568 569
569 570
570 571
571 572
572 573
573 574
574 575
575 576
576 577
577 578
578 579
579 580
580 581
581 582
582 583
583 584
584 585
585 586
586 587
587 588
588 589
589 590
590 591
591 592
592 593
593 594
594 595
595 596
596 597
597 598
598 599
599 600
600 601
601 602
602 603
603 604
604 605
605 606
606 607
607 608
608 609
609 610
610 611
611 612
612 613
613 614
614 615
615 616
616 617
617 618
618 619
619 620
620 621
621 622
622 623
623 624
624 625
625 626
626 627
627 628
628 629
629 630
630 631
631 632
632 633
633 634
634 635
635 636
636 637
637 638
638 639
639 640
640 641
641 642
642 643
643 644
644 645
645 646
646 647
647 648
648 649
649 650
650 651
651 652
652 653
653 654
654 655
655 656
656 657
657 658
658 659
659 660
660 661
661 662
662 663
663 664
664 665
665 666
666 667
667 668
668 669
669 670
670 671
671 672
672 673
673 674
674 675
675 676
676 677
677 678
678 679
679 680
680 681
681 682
682 683
683 684
684 685
685 686
687 688
688 689
689 690
690 691
691 692
692 693
693 694
694 695
695 696
696 697
697 698
698 699
699 700
700 701
701 702
702 703
703 704
704 705
705 706
706 707
707 708
708 709
709 710
710 711
711 712
713 714
714 715
715 716
716 717
717 718
718 719
719 720
720 721
721 722
722 723
723 724
724 725
725 726
726 727
727 728
728 729
729 730
730 731
731 732
732 733
733 734
734 735
735 736
736 737
737 738
738 739
739 740
740 741
741 742
742 743
743 744
744 745
745 746
746 747
747 748
748 749
749 750
750 751
751 752
752 753
753 754
754 755
755 756
756 757
757 758
758 759
759 760
760 761
761 762
762 763
763 764
764 765
765 766
766 767
767 768
768 769
769 770
770 771
771 772
772 773
773 774
774 775
775 776
777 778
778 779
779 780
780 781
781 782
782 783
783 784
784 785
785 786
786 787
787 788
788 789
789 790
790 791
791 792
792 793
793 794
794 795
795 796
796 797
797 798
798 799
799 800
800 801
801 802
802 803
803 804
804 805
805 806
806 807
807 808
808 809
809 810
810 811
811 812
812 813
813 814
814 815
815 816
816 817
817 818
818 819
819 820
820 821
821 822
822 823
823 824
824 825
825 826
826 827
827 828
828 829
829 830
830 831
831 832
832 833
833 834
834 835
835 836
836 837
837 838
838 839
839 840
840 841
841 842
842 843
843 844
844 845
845 846
846 847
847 848
848 849
849 850
850 851
851 852
852 853
853 854
854 855
855 856
856 857
857 858
858 859
859 860
860 861
861 862
862 863
863 864
864 865
865 866
866 867
867 868
868 869
869 870
870 871
871 872
872 873
873 874
874 875
875 876
876 877
877 878
878 879
879 880
880 881
881 882
882 883
883 884
884 885
885 886
886 887
887 888
888 889
889 890
890 891
891 892
892 893
893 894
894 895
895 896
896 897
897 898
898 899
899 900
900 901
901 902
902 903
903 904
904 905
905 906
906 907
907 908
908 909
909 910
910 911
911 912
912 913
913 914
914 915
915 916
916 917
917 918
918 919
919 920
920 921
921 922
922 923
923 924
924 925
925 926
926 927
927 928
928 929
929 930
930 931
931 932
932 933
933 934
934 935
935 936
936 937
937 938
938 939
939 940
940 941
941 942
942 943
943 944
944 945
945 946
946 947
947 948
948 949
949 950
950 951
951 952
952 953
953 954
954 955
955 956
956 957
957 958
958 959
959 960
960 961
961 962
962 963
963 964
964 965
965 966
966 967
967 968
968 969
969 970
970 971
971 972
972 973
973 974
974 975
975 976
976 977
977 978
978 979
979 980
980 981
981 982
982 983
983 984
984 985
985 986
986 987
987 988
988 989
989 990
990 991
991 992
992 993
993 994
994 995
995 996
996 997
997 998
998 999
999 1000
1000 1001
1001 1002
1002 1003
1003 1004
1004 1005
1005 1006
1006 1007
1007 1008
1008 1009
1009 1010
1010 1011
1011 1012
1012 1013
1013 1014
1014 1015
1015 1016
1016 1017
1017 1018
1018 1019
1019 1020
1020 1021
1021 1022
1022 1023
1023 1024
1024 1025
1025 1026
1026 1027
1027 1028
1028 1029
1029 1030
1030 1031
1031 1032
1032 1033
1033 1034
1034 1035
1035 1036
1036 1037
1037 1038
1038 1039
1039 1040
1040 1041
1041 1042
1042 1043
1043 1044
1044 1045
1045 1046
1046 1047
1047 1048
1048 1049
1049 1050
1050 1051
1051 1052
1052 1053
1053 1054
1054 1055
1055 1056
1056 1057
1057 1058
1058 1059
1059 1060
1060 1061
1061 1062
1062 1063
1063 1064
1064 1065
1065 1066
1066 1067
1067 1068
